n_res = 4;
rc = [ 14, 16, 17, 10 ];
n_tasks = 30;
d = [ 8, 2, 9, 5, 6, 3, 3, 6, 2, 5, 2, 4, 5, 8, 10, 7, 8, 3, 5, 10, 7, 5, 7, 8, 10, 2, 5, 5, 3, 2 ];
rr = [| 14, 14, 14, 14, 14, 14, 14, 14, 14, 14, 14, 14, 14, 14, 14, 14, 14, 14, 14, 14, 14, 14, 14, 14, 14, 14, 14, 14, 14, 14
      | 16, 16, 16, 16, 16, 16, 16, 16, 16, 16, 16, 16, 16, 16, 16, 16, 16, 16, 16, 16, 16, 16, 16, 16, 16, 16, 16, 16, 16, 16
      | 17, 17, 17, 17, 17, 17, 17, 17, 17, 17, 17, 17, 17, 17, 17, 17, 17, 17, 17, 17, 17, 17, 17, 17, 17, 17, 17, 17, 17, 17
      | 10, 10, 10, 10, 10, 10, 10, 10, 10, 10, 10, 10, 10, 10, 10, 10, 10, 10, 10, 10, 10, 10, 10, 10, 10, 10, 10, 10, 10, 10|];
suc = [ { 4, 14 },
       { 5, 8, 10 },
       { 7, 9, 12 },
       { 5, 10, 16 },
       { 6, 7, 9 },
       { 11, 13, 21 },
       { 11, 17, 26 },
       { 14, 21, 22 },
       { 13, 17, 22 },
       { 18, 24, 25 },
       { 19, 29 },
       { 14, 15, 27 },
       { 18, 23 },
       { 20, 29, 30 },
       { 18, 19, 24 },
       { 17, 19, 23 },
       { 21, 25 },
       { 20, 26 },
       { 20, 22 },
       { 28 },
       { 27 },
       { 25 },
       { 24, 26, 27 },
       { 29 },
       { 28, 30 },
       { 28 },
       { 30 },
       {  },
       {  },
       {  } ];
